c Sudoku solution
p cnf 729 0
125 0
172 0
226 0
244 0
265 0
332 0
252 0
347 0
356 0
369 0
381 0
433 0
528 0
593 0
614 0
627 0
635 0
671 0
718 0
313 0
324 0
797 0
822 0
848 0
874 0
946 0
961 0
891 0
983 0
992 0
978 0
929 0
723 0
731 0
934 0
421 0
211 0
273 0
375 0
398 0
299 0
287 0
238 0
495 0
194 0
186 0
776 0
696 0
577 0
479 0
442 0
416 0
512 0
539 0
566 0
584 0
682 0
488 0
836 0
119 0
137 0
762 0
754 0
457 0
464 0
955 0
749 0
867 0
853 0
785 0
889 0
815 0
917 0
545 0
551 0
141 0
643 0
668 0
659 0
158 0
163 0
